100
120
100
100
100
100
99
97
96
95
94
94
94
93
90
90
89
89
89
89
88
88
87
87
87
86
85
84
84
84
83
83
83
82
80
80
79
78
78
76
75
75
74
70
70
69
69
69
69
68
68
68
68
67
66
65
65
64
64
64
63
63
62
62
61
61
60
60
59
58
58
57
57
55
54
53
53
51
51
49
49
49
48
47
47
46
46
42
41
38
37
35
34
33
32
32
32
31
31
30
30
30
